 &CONTROL
   calculation     =  'scf'
   etot_conv_thr   =  0.0004
   forc_conv_thr   =  0.0001
   outdir          =  '../../out/'
   prefix          =  'aiida'
   pseudo_dir      =  '../../pseudo/'
   tprnfor         =  .true.
   tstress         =  .true.
   verbosity       =  'high'
 /

 &SYSTEM
   degauss         =  0.0146997236
   ecutrho         =  160
   ecutwfc         =  40.0
   ibrav           =  0
   nat             =  40
   nosym           =  .false.
   ntyp            =  3
   occupations     =  'smearing'
   smearing        =  'cold'
 /

 &ELECTRONS
   conv_thr        =  8e-9
   electron_maxstep =  80
   mixing_beta     =  0.4
 /

ATOMIC_SPECIES 
  Cs    132.9054519   Cs_pbe_v1.uspp.F.UPF 
  I    126.90447   I.pbe-n-kjpaw_psl.0.2.UPF 
  Pb    207.2   Pb.pbe-dn-kjpaw_psl.0.2.2.UPF 


CELL_PARAMETERS angstrom
   12.7631423300000009   0.0000000000000000   0.0000000000000000
    0.0000000000000000  12.7631423300000009   0.0000000000000000
    0.0000000000000000   0.0000000000000000  12.7631423300000009

ATOMIC_POSITIONS (crystal)
  Cs       0.250000052400   0.250000052400   0.250000052400
  Cs       0.250000052400   0.250000052400   0.749999947600
  Cs       0.250000052400   0.749999947600   0.250000052400
  Cs       0.250000052400   0.749999947600   0.749999947600
  Cs       0.749999947600   0.250000052400   0.250000052400
  Cs       0.749999947600   0.250000052400   0.749999947600
  Cs       0.749999947600   0.749999947600   0.250000052400
  Cs       0.749999947600   0.749999947600   0.749999947600
  Pb       0.000000000000   0.000000000000   0.000000000000
  Pb       0.000000000000   0.000000000000   0.500000000000
  Pb       0.000000000000   0.500000000000   0.000000000000
  Pb       0.000000000000   0.500000000000   0.500000000000
  Pb       0.500000000000   0.000000000000   0.000000000000
  Pb       0.500000000000   0.000000000000   0.500000000000
  Pb       0.500000000000   0.500000000000   0.000000000000
  Pb       0.500000000000   0.500000000000   0.500000000000
  I       -0.000000000000  -0.000000000000   0.250001641500
  I        0.000000000000  -0.000000000000   0.749998358500
  I        0.000000000000   0.500000000000   0.250001656700
  I        0.000000000000   0.500000000000   0.749998343300
  I        0.500000000000  -0.000000000000   0.250001656700
  I        0.500000000000  -0.000000000000   0.749998343300
  I        0.500000000000   0.500000000000   0.250001660100
  I        0.500000000000   0.500000000000   0.749998339900
  I        0.000000000000   0.250001641500   0.000000000000
  I        0.000000000000   0.250001656700   0.500000000000
  I       -0.000000000000   0.749998358500   0.000000000000
  I        0.000000000000   0.749998343300   0.500000000000
  I        0.500000000000   0.250001656700   0.000000000000
  I        0.500000000000   0.250001660100   0.500000000000
  I        0.500000000000   0.749998343300   0.000000000000
  I        0.500000000000   0.749998339900   0.500000000000
  I        0.250001641500  -0.000000000000  -0.000000000000
  I        0.250001656700  -0.000000000000   0.500000000000
  I        0.250001656700   0.500000000000  -0.000000000000
  I        0.250001660100   0.500000000000   0.500000000000
  I        0.749998358500   0.000000000000  -0.000000000000
  I        0.749998343300  -0.000000000000   0.500000000000
  I        0.749998343300   0.500000000000  -0.000000000000
  I        0.749998339900   0.500000000000   0.500000000000

K_POINTS automatic
  3   3   3   0   0   0 



