&BANDS
 outdir  = '../out/'
 prefix  = 'aiida'
 filband = 'CsPbI3.bands'
/
