&CONTROL
  calculation = 'scf'
  etot_conv_thr =   4.0000000000d-04
  forc_conv_thr =   1.0000000000d-04
  outdir = '../../out/'
  prefix = 'aiida'
  pseudo_dir = '../../pseudo/'
  tprnfor = .true.
  tstress = .true.
  verbosity = 'high'
/
&SYSTEM
  degauss =   1.4699723600d-02
  ecutrho =   3.2000000000d+02
  ecutwfc =   4.0000000000d+01
  ibrav = 0
  nat = 40
  nosym = .false.
  ntyp = 3
  occupations = 'smearing'
  smearing = 'cold'
/
&ELECTRONS
  conv_thr =   8.0000000000d-09
  electron_maxstep = 80
  mixing_beta =   4.0000000000d-01
/
ATOMIC_SPECIES
Cs     132.9054519 Cs_pbe_v1.uspp.F.UPF
I      126.90447 I.pbe-n-kjpaw_psl.0.2.UPF
Pb     207.2 Pb.pbe-dn-kjpaw_psl.0.2.2.UPF
ATOMIC_POSITIONS (crystal)
Cs            0.2500000524        0.2500000524        0.2500000524
Cs            0.2500000524        0.2500000524        0.7499999476
Cs            0.2500000524        0.7499999476        0.2500000524
Cs            0.2500000524        0.7499999476        0.7499999476
Cs            0.7499999476        0.2500000524        0.2500000524
Cs            0.7499999476        0.2500000524        0.7499999476
Cs            0.7499999476        0.7499999476        0.2500000524
Cs            0.7499999476        0.7499999476        0.7499999476
Pb            0.0000000000        0.0000000000        0.0000000000
Pb            0.0000000000        0.0000000000        0.5000000000
Pb            0.0000000000        0.5000000000        0.0000000000
Pb            0.0000000000        0.5000000000        0.5000000000
Pb            0.5000000000        0.0000000000        0.0000000000
Pb            0.5000000000        0.0000000000        0.5000000000
Pb            0.5000000000        0.5000000000        0.0000000000
Pb            0.5000000000        0.5000000000        0.5000000000
I            -0.0000000000       -0.0000000000        0.2500016415
I             0.0000000000       -0.0000000000        0.7499983585
I             0.0000000000        0.5000000000        0.2500016567
I             0.0000000000        0.5000000000        0.7499983433
I             0.5000000000       -0.0000000000        0.2500016567
I             0.5000000000       -0.0000000000        0.7499983433
I             0.5000000000        0.5000000000        0.2500016601
I             0.5000000000        0.5000000000        0.7499983399
I             0.0000000000        0.2500016415        0.0000000000
I             0.0000000000        0.2500016567        0.5000000000
I            -0.0000000000        0.7499983585        0.0000000000
I             0.0000000000        0.7499983433        0.5000000000
I             0.5000000000        0.2500016567        0.0000000000
I             0.5000000000        0.2500016601        0.5000000000
I             0.5000000000        0.7499983433        0.0000000000
I             0.5000000000        0.7499983399        0.5000000000
I             0.2500016415       -0.0000000000       -0.0000000000
I             0.2500016567       -0.0000000000        0.5000000000
I             0.2500016567        0.5000000000       -0.0000000000
I             0.2500016601        0.5000000000        0.5000000000
I             0.7499983585        0.0000000000       -0.0000000000
I             0.7499983433       -0.0000000000        0.5000000000
I             0.7499983433        0.5000000000       -0.0000000000
I             0.7499983399        0.5000000000        0.5000000000

K_POINTS automatic
3 3 3 0 0 0
CELL_PARAMETERS angstrom
  12.763142330   0.000000000   0.000000000
   0.000000000  12.763142330   0.000000000
   0.000000000   0.000000000  12.763142330
