 &control
    calculation = 'relax'
    !etot_conv_thr =   1.0000000000d-05
    !forc_conv_thr =   1.0000000000d-04
    !tprnfor = .true.
    !tstress = .true.
    verbosity = 'high'
    pseudo_dir = '.',
    !prefix='w',
 /
 &system
    ibrav = 1, celldm(1) = 24.1000, nat = 129, ntyp = 2,
    ecutwfc = 60.0, ecutrho = 600.0,
    occupations='smearing', smearing='mv', degauss=0.02,
    !nbnd = 8,
    !nspin=2,
    starting_magnetization(1)= 0.1
    starting_magnetization(2)= 0.2
    
 /
 &electrons
    conv_thr=1e-3
    mixing_beta = 0.2
 /
 &ions
    ion_dynamics='bfgs'
 /
 &cell
    cell_dynamics='bfgs'
    cell_dofree='volume'
 /
ATOMIC_SPECIES
# the second field, atomic mass, is not actually used 
# except for MD calculations
 W	183.84	W.pbe-spn-rrkjus_psl.1.0.0.UPF
 O	15.999	O.pbe-n-rrkjus_psl.1.0.0.UPF
ATOMIC_POSITIONS (crystal)
W             0.0000000000        0.0000000000        0.0000000000
W             0.1249983897        0.1249983897        0.1249983897
W             0.0000000000        0.0000000000        0.2500007360
W             0.1249947721        0.1249947721        0.3749975232
W             0.0000000000        0.0000000000        0.4999980000
W             0.1249947721        0.1249947721        0.6249994768
W             0.0000000000        0.0000000000        0.7499962640
W             0.1249983897        0.1249983897        0.8749986103
W             0.0000000000        0.2500007360       -0.0000000000
W             0.1249947721        0.3749975232        0.1249947721
W             0.0000000000        0.2499972422        0.2499972422
W             0.1249973962        0.3750058541        0.3750058541
W             0.0000000000        0.2500023353        0.4999980000
W             0.1249973962        0.3750058541        0.6249911459
W             0.0000000000        0.2499972422        0.7499997578
W             0.1249947721        0.3749975232        0.8750022279
W             0.0000000000        0.4999980000        0.0000000000
W             0.1249947721        0.6249994768        0.1249947721
W             0.0000000000        0.4999980000        0.2500023353
W             0.1249973962        0.6249911459        0.3750058541
W             0.0000000000        0.4999980000        0.4999980000
W             0.1249973962        0.6249911459        0.6249911459
W             0.0000000000        0.4999980000        0.7499946647
W             0.1249947721        0.6249994768        0.8750022279
W             0.0000000000        0.7499962640        0.0000000000
W             0.1249983897        0.8749986103        0.1249983897
W             0.0000000000        0.7499997578        0.2499972422
W             0.1249947721        0.8750022279        0.3749975232
W             0.0000000000        0.7499946647        0.4999980000
W             0.1249947721        0.8750022279        0.6249994768
W             0.0000000000        0.7499997578        0.7499997578
W             0.1249983897        0.8749986103        0.8749986103
W             0.2500007360       -0.0000000000       -0.0000000000
W             0.3749975232        0.1249947721        0.1249947721
W             0.2499972422       -0.0000000000        0.2499972422
W             0.3750058541        0.1249973962        0.3750058541
W             0.2500023353       -0.0000000000        0.4999980000
W             0.3750058541        0.1249973962        0.6249911459
W             0.2499972422        0.0000000000        0.7499997578
W             0.3749975232        0.1249947721        0.8750022279
W             0.2499972422        0.2499972422        0.0000000000
W             0.3750058541        0.3750058541        0.1249973962
W             0.2500016590        0.2500016590        0.2500016590
W             0.3750053617        0.3750053617        0.3750053617
W             0.2500030526        0.2500030526        0.4999980000
W             0.3750053617        0.3750053617        0.6249916383
W             0.2500016590        0.2500016590        0.7499953410
W             0.3750058541        0.3750058541        0.8749996038
W             0.2500023353        0.4999980000       -0.0000000000
W             0.3750058541        0.6249911459        0.1249973962
W             0.2500030526        0.4999980000        0.2500030526
W             0.3750053617        0.6249916383        0.3750053617
W             0.2500152191        0.4999980000        0.4999980000
W             0.3750053617        0.6249916383        0.6249916383
W             0.2500030526        0.4999980000        0.7499939474
W             0.3750058541        0.6249911459        0.8749996038
W             0.2499972422        0.7499997578        0.0000000000
W             0.3749975232        0.8750022279        0.1249947721
W             0.2500016590        0.7499953410        0.2500016590
W             0.3750058541        0.8749996038        0.3750058541
W             0.2500030526        0.7499939474        0.4999980000
W             0.3750058541        0.8749996038        0.6249911459
W             0.2500016590        0.7499953410        0.7499953410
W             0.3749975232        0.8750022279        0.8750022279
W             0.4999980000        0.0000000000       -0.0000000000
W             0.6249994768        0.1249947721        0.1249947721
W             0.4999980000        0.0000000000        0.2500023353
W             0.6249911459        0.1249973962        0.3750058541
W             0.4999980000        0.0000000000        0.4999980000
W             0.6249911459        0.1249973962        0.6249911459
W             0.4999980000        0.0000000000        0.7499946647
W             0.6249994768        0.1249947721        0.8750022279
W             0.4999980000        0.2500023353       -0.0000000000
W             0.6249911459        0.3750058541        0.1249973962
W             0.4999980000        0.2500030526        0.2500030526
W             0.6249916383        0.3750053617        0.3750053617
W             0.4999980000        0.2500152191        0.4999980000
W             0.6249916383        0.3750053617        0.6249916383
W             0.4999980000        0.2500030526        0.7499939474
O             0.4999980000        0.3750036300        0.3750036300
W             0.6249911459        0.3750058541        0.8749996038
W             0.4999980000        0.4999980000        0.0000000000
W             0.6249911459        0.6249911459        0.1249973962
W             0.4999980000        0.4999980000        0.2500152191
W             0.6249916383        0.6249916383        0.3750053617
W             0.4999980000        0.4999980000        0.4999980000
W             0.6249916383        0.6249916383        0.6249916383
W             0.4999980000        0.4999980000        0.7499817809
W             0.6249911459        0.6249911459        0.8749996038
W             0.4999980000        0.7499946647        0.0000000000
W             0.6249994768        0.8750022279        0.1249947721
W             0.4999980000        0.7499939474        0.2500030526
W             0.6249911459        0.8749996038        0.3750058541
W             0.4999980000        0.7499817809        0.4999980000
W             0.6249911459        0.8749996038        0.6249911459
W             0.4999980000        0.7499939474        0.7499939474
W             0.6249994768        0.8750022279        0.8750022279
W             0.7499962640        0.0000000000       -0.0000000000
W             0.8749986103        0.1249983897        0.1249983897
W             0.7499997578        0.0000000000        0.2499972422
W             0.8750022279        0.1249947721        0.3749975232
W             0.7499946647        0.0000000000        0.4999980000
W             0.8750022279        0.1249947721        0.6249994768
W             0.7499997578       -0.0000000000        0.7499997578
W             0.8749986103        0.1249983897        0.8749986103
W             0.7499997578        0.2499972422        0.0000000000
W             0.8750022279        0.3749975232        0.1249947721
W             0.7499953410        0.2500016590        0.2500016590
W             0.8749996038        0.3750058541        0.3750058541
W             0.7499939474        0.2500030526        0.4999980000
W             0.8749996038        0.3750058541        0.6249911459
W             0.7499953410        0.2500016590        0.7499953410
W             0.8750022279        0.3749975232        0.8750022279
W             0.7499946647        0.4999980000        0.0000000000
W             0.8750022279        0.6249994768        0.1249947721
W             0.7499939474        0.4999980000        0.2500030526
W             0.8749996038        0.6249911459        0.3750058541
W             0.7499817809        0.4999980000        0.4999980000
W             0.8749996038        0.6249911459        0.6249911459
W             0.7499939474        0.4999980000        0.7499939474
W             0.8750022279        0.6249994768        0.8750022279
W             0.7499997578        0.7499997578        0.0000000000
W             0.8749986103        0.8749986103        0.1249983897
W             0.7499953410        0.7499953410        0.2500016590
W             0.8750022279        0.8750022279        0.3749975232
W             0.7499939474        0.7499939474        0.4999980000
W             0.8750022279        0.8750022279        0.6249994768
W             0.7499953410        0.7499953410        0.7499953410
W             0.8749986103        0.8749986103        0.8749986103
! this is a comment that the code will ignore
K_POINTS automatic
4 4 4 1 1 1
