ir1 mn3
0.98
        3.7720000744         0.0000000000         0.0000000000
        0.0000000000         3.7720000744         0.0000000000
        0.0000000000         0.0000000000         3.7720000744
   Ir   Mn
    1    3
Direct
     0.000000000         0.000000000         0.000000000
    -0.000000000         0.500000000         0.500000000
     0.500000000        -0.000000000         0.500000000
     0.500000000         0.500000000         0.000000000
