&CONTROL
                   title = 'Co2VAl' ,
             calculation = 'scf' ,
                  outdir = '.' ,
              pseudo_dir = '.' ,
                  prefix = 'Co2VAl' ,
               verbosity = 'high' ,
                 disk_io = 'low',
           etot_conv_thr = 1.0D-6 ,
           forc_conv_thr = 1.0D-6 ,
 /
 &SYSTEM
                       ibrav = 2,
                   celldm(1) = 10.90737240,
                         nat = 4,
                        ntyp = 3,
                     ecutwfc = 300 ,
                     ecutrho = 3000 ,
                 occupations = 'smearing' ,
                     degauss = 0.05 ,
                    smearing = 'marzari-vanderbilt' ,
   starting_magnetization(1) = -0.3,
   starting_magnetization(2) = 0.3,
   starting_magnetization(3) = 0.2,
                    noncolin = .true. ,
                    lspinorb = .true. ,
 /
 &ELECTRONS
              diagonalization = 'david',
                    conv_thr = 1.0D-8 ,
 /
ATOMIC_SPECIES
   Co   58.93319  Co.rel-pbe-spn-rrkjus_psl.0.3.1.UPF
    V   50.94150  V.rel-pbe-spnl-rrkjus_psl.1.0.0.UPF
   Al   26.98154  Al.rel-pbe-nl-rrkjus_psl.1.0.0.UPF
ATOMIC_POSITIONS alat
    V      0.000000000    0.000000000    0.000000000
   Al      0.500000000    0.500000000    0.500000000
   Co      0.750000000    0.750000000    0.750000000
   Co      0.250000000    0.250000000    0.250000000
K_POINTS automatic
  12 12 12   0 0 0
