&CONTROL
                       title = 'Co2VAl' ,
                 calculation = 'bands' ,
                      outdir = '/home/ug2018/mst/18114017/QE_sample/Co2VAl/band_structure/' ,
                  pseudo_dir = '/home/ug2018/mst/18114017/QE_sample/Co2VAl/band_structure/' ,
                      prefix = 'Co2VAl' ,
                   verbosity = 'high' ,
                     disk_io = 'low',
               etot_conv_thr = 1.0D-6 ,
               forc_conv_thr = 1.0D-6 ,
 /
 &SYSTEM
                       ibrav = 2,
                   celldm(1) = 10.90737240,
                         nat = 4,
                        ntyp = 3, 
                     ecutwfc = 300 ,
                     ecutrho = 3000 ,
                 occupations = 'smearing' ,
                     degauss = 0.01 ,
                    smearing = 'marzari-vanderbilt' , 
       
   starting_magnetization(1) = -0.3, 
   starting_magnetization(2) = 0.3,
   starting_magnetization(3) = 0.2,
                    noncolin = .true. ,
                    lspinorb = .true. , 
 /  
 &ELECTRONS
                    conv_thr = 1.0D-8 , 
             diagonalization = 'david',
            diago_david_ndim = 4,
 /
ATOMIC_SPECIES
   Co   58.93319  Co.rel-pbe-spn-rrkjus_psl.0.3.1.UPF
    V   50.94150  V.rel-pbe-spnl-rrkjus_psl.1.0.0.UPF
   Al   26.98154  Al.rel-pbe-nl-rrkjus_psl.1.0.0.UPF
   
ATOMIC_POSITIONS alat
    V      0.000000000    0.000000000    0.000000000
   Al      0.500000000    0.500000000    0.500000000
   Co      0.750000000    0.750000000    0.750000000
   Co      0.250000000    0.250000000    0.250000000
   
K_POINTS crystal_b
7
 0.5   0.5    0.0   30
 0.0   0.0    0.0   30
 0.0   0.0   -0.5   30
-0.25  -0.5  -0.75  30
-0.375 -0.375 -0.75 30
-0.0  -0.0   -0.0   30
-0.25 -0.5   -0.75  1                                                                                                 
                                                                                                             
                                                                                                       
